18 4
31 13 80 68 40 39 91 15 82 43 24 44 67 41 61 69 79 61
35 66 14 66 60 29 29 69 89 69 99 73 61 91 92 32 19 98
98 36 94 19 23 20 23 59 94 33 33 40 30 94 67 45 33 76
63 94 41 16 69 32 92 71 66 84 88 70 59 90 85 97 67 50
